
******************************************************************************
This program contains Ipopt, a library for large-scale nonlinear optimization.
 Ipopt is released as open source code under the Eclipse Public License (EPL).
         For more information visit http://projects.coin-or.org/Ipopt

This version of Ipopt was compiled from source code available at
    https://github.com/IDAES/Ipopt as part of the Institute for the Design of
    Advanced Energy Systems Process Systems Engineering Framework (IDAES PSE
    Framework) Copyright (c) 2018-2019. See https://github.com/IDAES/idaes-pse.

This version of Ipopt was compiled using HSL, a collection of Fortran codes
    for large-scale scientific computation.  All technical papers, sales and
    publicity material resulting from use of the HSL codes within IPOPT must
    contain the following acknowledgement:
        HSL, a collection of Fortran codes for large-scale scientific
        computation. See http://www.hsl.rl.ac.uk.
******************************************************************************

This is Ipopt version 3.13.2, running with linear solver ma27.

Number of nonzeros in equality constraint Jacobian...:     1782
Number of nonzeros in inequality constraint Jacobian.:        0
Number of nonzeros in Lagrangian Hessian.............:     3193

Total number of variables............................:      620
                     variables with only lower bounds:      124
                variables with lower and upper bounds:      434
                     variables with only upper bounds:        0
Total number of equality constraints.................:      612
Total number of inequality constraints...............:        0
        inequality constraints with only lower bounds:        0
   inequality constraints with lower and upper bounds:        0
        inequality constraints with only upper bounds:        0

iter    objective    inf_pr   inf_du lg(mu)  ||d||  lg(rg) alpha_du alpha_pr  ls
   0  0.0000000e+00 1.64e+00 1.44e-14  -1.0 0.00e+00    -  0.00e+00 0.00e+00   0
   1  8.3304687e+00 9.96e-01 1.20e+03  -1.0 3.95e+04    -  5.37e-01 9.90e-01h  1
   2  9.3219175e+00 3.55e-02 1.84e+02  -1.0 4.11e+03    -  8.06e-01 9.90e-01h  1
   3  9.4004970e+00 5.38e-04 4.57e+02  -1.0 5.42e+02    -  9.85e-01 9.90e-01h  1
   4  8.3350487e+00 7.99e-05 1.88e+05  -1.0 7.61e+03    -  9.71e-01 9.90e-01H  1
   5  8.3349114e+00 7.99e-05 9.89e+08  -1.0 2.79e+03    -  9.90e-01 4.83e-04h 12
   6  8.3347726e+00 7.99e-05 1.98e+09  -1.0 2.82e+03    -  9.90e-01 4.83e-04h 12
   7  8.3346340e+00 7.99e-05 2.98e+09  -1.0 2.82e+03    -  1.00e+00 4.83e-04h 12
   8  8.3344956e+00 7.99e-05 3.98e+09  -1.0 2.82e+03    -  1.00e+00 4.83e-04h 12
   9  8.3343572e+00 7.99e-05 4.98e+09  -1.0 2.82e+03    -  1.00e+00 4.83e-04h 12
iter    objective    inf_pr   inf_du lg(mu)  ||d||  lg(rg) alpha_du alpha_pr  ls
  10  8.3342190e+00 7.98e-05 5.98e+09  -1.0 2.81e+03    -  1.00e+00 4.83e-04h 12
  11  8.3340810e+00 7.98e-05 6.98e+09  -1.0 2.81e+03    -  1.00e+00 4.83e-04h 12
  12  8.3339430e+00 7.98e-05 7.98e+09  -1.0 2.81e+03    -  1.00e+00 4.83e-04h 12
  13  8.3338053e+00 7.98e-05 8.98e+09  -1.0 2.81e+03    -  1.00e+00 4.83e-04h 12
  14  8.3336676e+00 7.98e-05 9.98e+09  -1.0 2.81e+03    -  1.00e+00 4.83e-04h 12
  15  8.1891576e+00 1.12e-01 1.10e+08  -1.0 2.81e+03    -  1.00e+00 9.90e-01w  1
  16  8.1911660e+00 8.00e-04 1.01e+09  -1.0 4.05e+01    -  1.00e+00 9.90e-01w  1
  17  8.1911895e+00 8.01e-06 1.00e+11  -1.0 4.17e-01    -  1.00e+00 9.90e-01h  1
In iteration 17, 31 Slacks too small, adjusting variable bounds
  18  8.1911898e+00 8.01e-08 1.00e+13  -1.0 4.16e-03    -  1.00e+00 9.90e-01h  1
  19  8.1911898e+00 1.37e-11 1.00e-06  -1.0 4.18e-05    -  1.00e+00 1.00e+00h  1
iter    objective    inf_pr   inf_du lg(mu)  ||d||  lg(rg) alpha_du alpha_pr  ls
  20  8.1911128e+00 3.84e-07 9.86e+12  -9.0 3.29e+02    -  9.63e-01 1.95e-03f 10
  21  8.1910949e+00 3.70e-07 1.01e+13  -9.0 2.03e+03    -  5.22e-01 5.46e-05f 15
  22  8.1910526e+00 8.07e-08 6.38e+06  -9.0 2.54e-01  -4.0 1.00e+00 1.00e+00h  1
  23  8.1909732e+00 3.02e-07 1.38e+06  -9.0 3.92e+03    -  7.84e-01 1.22e-04f 14
  24  8.1909334e+00 3.58e-07 1.02e-03  -9.0 3.92e+03    -  1.00e+00 6.10e-05f 15
  25  8.1909136e+00 3.72e-07 1.02e-03  -9.0 3.92e+03    -  1.00e+00 3.05e-05f 16
  26  8.1909086e+00 3.72e-07 1.02e-03  -9.0 3.92e+03    -  1.00e+00 7.63e-06f 18
  27  8.1909062e+00 3.73e-07 1.02e-03  -9.0 3.92e+03    -  1.00e+00 3.81e-06f 19
  28  7.8625890e+00 5.16e+01 3.54e+00  -9.0 3.92e+03    -  1.00e+00 1.00e+00f  1
  29  8.5715840e+00 1.37e+01 6.06e+02  -9.0 4.22e+04    -  1.41e-01 1.00e+00h  1
iter    objective    inf_pr   inf_du lg(mu)  ||d||  lg(rg) alpha_du alpha_pr  ls
  30  9.0048808e+00 1.00e+01 6.03e+02  -9.0 3.95e+05    -  5.52e-02 4.97e-03h  2
  31  9.8522746e+00 9.93e+00 5.98e+02  -9.0 3.75e+05    -  3.08e-03 8.82e-03h  2
  32  1.0066946e+01 9.91e+00 5.97e+02  -9.0 4.31e+05    -  6.42e-03 2.02e-03h  3
  33  1.1059843e+01 9.83e+00 5.92e+02  -9.0 4.34e+05    -  8.00e-03 8.48e-03h  3
  34  1.2107166e+01 9.75e+00 5.87e+02  -9.0 4.35e+05    -  1.28e-01 8.18e-03h  3
  35  1.2943730e+01 9.69e+00 5.84e+02  -9.0 4.42e+05    -  2.28e-02 6.01e-03h  3
  36  1.3638351e+01 9.64e+00 5.81e+02  -9.0 4.33e+05    -  1.68e-01 4.76e-03h  3
  37  1.5929140e+01 9.51e+00 5.73e+02  -9.0 4.26e+05    -  6.83e-02 1.37e-02h  1
  38  4.2804214e+01 8.58e+00 5.60e+02  -9.0 3.45e+05    -  5.95e-01 9.77e-02h  1
  39  4.5977486e+01 8.49e+00 5.54e+02  -9.0 1.10e+06    -  3.62e-08 1.03e-02h  1
iter    objective    inf_pr   inf_du lg(mu)  ||d||  lg(rg) alpha_du alpha_pr  ls
  40  4.5858873e+01 8.49e+00 5.54e+02  -9.0 2.67e+06    -  1.53e-02 8.92e-05H  1
  41  6.2946204e+01 8.34e+00 5.43e+02  -9.0 1.19e+06    -  5.54e-09 1.84e-02h  4
  42  7.9081613e+01 8.00e+00 5.05e+05  -9.0 3.80e+05  -4.5 5.58e-06 4.00e-02h  3
  43  8.2368694e+01 7.94e+00 4.94e+05  -9.0 3.39e+05  -5.0 5.59e-02 7.76e-03h  4
  44  8.4538053e+01 7.90e+00 4.87e+05  -9.0 9.57e+05  -5.4 5.04e-02 5.16e-03h  4
  45  8.7755857e+01 7.85e+00 4.80e+05  -9.0 3.52e+05  -5.0 2.09e-01 7.02e-03h  4
  46  8.9615309e+01 7.81e+00 4.76e+05  -9.0 4.02e+05  -5.5 1.19e-01 4.39e-03h  4
  47  9.1831532e+01 7.77e+00 4.72e+05  -9.0 3.67e+05  -5.1 5.70e-01 4.59e-03h  4
  48  9.2504365e+01 7.76e+00 4.71e+05  -9.0 3.64e+05  -5.5 1.02e-01 1.51e-03h  5
  49  9.3346552e+01 7.75e+00 4.70e+05  -9.0 3.74e+05  -5.1 1.00e+00 1.72e-03h  5
iter    objective    inf_pr   inf_du lg(mu)  ||d||  lg(rg) alpha_du alpha_pr  ls
  50  9.3898728e+01 7.74e+00 4.70e+05  -9.0 3.72e+05  -5.6 9.93e-02 1.23e-03h  5
  51  1.0569507e+02 2.22e+02 4.33e+05  -9.0 3.72e+05  -5.2 8.00e-01 2.28e-02w  1
In iteration 51, 1 Slack too small, adjusting variable bound
  52  1.0569508e+02 2.22e+02 4.33e+05  -9.0 5.85e+05  -4.7 3.27e-01 1.05e-08w  1
In iteration 52, 1 Slack too small, adjusting variable bound
  53  2.0497237e+02 1.94e+02 6.88e+06  -9.0 5.91e+05  -4.3 3.74e-01 1.28e-01w  1
  54  9.4599975e+01 7.73e+00 4.69e+05  -9.0 8.22e+05  -3.9 8.00e-01 1.42e-03h  4
  55  9.5347666e+01 7.72e+00 4.68e+05  -9.0 3.96e+05  -4.4 1.59e-01 1.44e-03h  5
  56  9.5652010e+01 7.71e+00 4.68e+05  -9.0 3.54e+05  -4.8 1.00e+00 5.91e-04h  6
  57  9.5954362e+01 7.71e+00 4.68e+05  -9.0 3.49e+05  -4.4 1.16e-01 5.67e-04h  6
  58  9.6257307e+01 7.71e+00 4.67e+05  -9.0 3.29e+05  -4.0 7.41e-01 5.34e-04h  6
  59  9.6365060e+01 7.70e+00 4.67e+05  -9.0 2.63e+06  -4.5 4.50e-02 1.05e-04h  7
iter    objective    inf_pr   inf_du lg(mu)  ||d||  lg(rg) alpha_du alpha_pr  ls
  60  9.8031188e+01 7.68e+00 4.67e+05  -9.0 5.70e+05  -4.0 6.98e-01 2.94e-03h  5
  61  9.9624020e+01 7.66e+00 4.66e+05  -9.0 5.21e+05  -3.6 3.82e-01 2.66e-03h  5
  62  1.0335708e+02 7.61e+00 4.64e+05  -9.0 5.56e+05  -4.1 9.05e-01 6.53e-03h  4
  63  1.0624933e+02 7.57e+00 4.62e+05  -9.0 5.89e+05  -4.6 4.17e-01 5.36e-03h  4
  64  1.1925657e+02 3.09e+02 4.59e+05  -9.0 6.36e+05  -5.0 6.37e-01 2.44e-02w  1
In iteration 64, 1 Slack too small, adjusting variable bound
  65  1.1935384e+02 3.09e+02 4.59e+05  -9.0 5.05e+05  -4.6 4.06e-01 1.76e-04w  1
  66  6.2861592e+02 2.22e+02 1.12e+07  -9.0 6.43e+05  -5.1 4.06e-01 2.82e-01w  1
  67  1.0697450e+02 7.56e+00 4.61e+05  -9.0 1.34e+06  -5.6 6.37e-01 1.52e-03h  4
  68  1.0748863e+02 7.55e+00 4.61e+05  -9.0 6.81e+05  -5.1 2.46e-01 1.17e-03h  5
  69  1.0834416e+02 7.54e+00 4.60e+05  -9.0 5.83e+05  -4.7 8.43e-01 1.63e-03h  5
iter    objective    inf_pr   inf_du lg(mu)  ||d||  lg(rg) alpha_du alpha_pr  ls
  70  1.0851306e+02 7.53e+00 4.60e+05  -9.0 7.37e+05  -5.2 1.85e-01 4.23e-04h  6
  71  1.0869279e+02 7.53e+00 4.60e+05  -9.0 5.84e+05  -4.8 1.00e+00 3.48e-04h  7
  72  1.0870724e+02 7.53e+00 4.60e+05  -9.0 8.20e+05  -5.2 1.48e-01 4.16e-05h  9
  73  1.0871247e+02 7.53e+00 4.60e+05  -9.0 5.90e+05  -4.8 1.00e+00 1.03e-05h 12
  74  1.1209197e+02 3.21e+02 4.56e+05  -9.0 1.03e+06  -5.3 8.10e-03 8.10e-03s 15
  75r 1.1209197e+02 3.21e+02 1.00e+03   2.5 0.00e+00  -4.9 0.00e+00 0.00e+00R  1
  76r 1.1209197e+02 3.05e+02 1.00e+03   2.5 2.59e+05    -  4.51e-05 7.29e-05f  5
  77r 1.1209190e+02 8.46e+01 1.00e+03   1.1 2.50e+05    -  8.23e-05 1.21e-03f  1
  78r 1.1209188e+02 8.12e+01 2.29e+03   1.1 1.56e+04    -  2.54e-02 1.05e-03f  1
  79r 1.1209185e+02 6.42e+01 2.06e+03   1.1 1.82e+02    -  4.84e-02 2.56e-02f  1
iter    objective    inf_pr   inf_du lg(mu)  ||d||  lg(rg) alpha_du alpha_pr  ls
  80r 1.1209183e+02 5.76e+01 2.84e+02   1.1 5.47e+01    -  9.49e-01 9.78e-02f  1
  81r 1.1209188e+02 3.80e+01 8.33e+02   1.1 2.43e+01    -  6.14e-02 3.11e-01f  1
  82r 1.1209229e+02 1.56e+01 5.25e+02   1.1 1.98e+01    -  1.00e+00 9.08e-01f  1
  83r 1.1209155e+02 1.05e+01 3.45e+02   0.4 2.04e+01    -  1.00e+00 8.81e-01f  1
  84  3.6440203e+02 1.07e+01 7.17e+03  -9.0 6.65e+05    -  1.78e-01 1.88e-01h  2
  85  3.7132925e+02 1.06e+01 7.55e+03  -9.0 5.76e+05  -5.3 3.25e-01 5.22e-03h  1
  86  4.7381826e+02 1.02e+01 2.39e+05  -9.0 3.07e+06  -5.8 1.20e-01 2.06e-02h  1
In iteration 86, 1 Slack too small, adjusting variable bound
  87  5.3947776e+02 9.77e+00 2.11e+05  -9.0 5.99e+05  -6.3 4.02e-03 3.98e-02h  1
  88  5.9856252e+02 9.39e+00 3.04e+05  -9.0 7.50e+05  -5.9 2.95e-09 4.32e-02h  1
In iteration 88, 1 Slack too small, adjusting variable bound
  89  5.9865354e+02 9.39e+00 3.04e+05  -9.0 3.22e+06  -6.4 1.51e-02 8.58e-05h  1
In iteration 89, 1 Slack too small, adjusting variable bound
iter    objective    inf_pr   inf_du lg(mu)  ||d||  lg(rg) alpha_du alpha_pr  ls
  90  6.0817248e+02 9.35e+00 3.04e+05  -9.0 1.23e+06  -5.9 1.87e-01 4.34e-03h  1
  91  6.3670580e+02 9.30e+00 2.83e+05  -9.0 1.35e+06  -6.4 1.43e-01 5.50e-03H  1
  92r 6.3670580e+02 9.30e+00 1.00e+03   1.0 0.00e+00  -6.0 0.00e+00 9.28e-12R  2
  93r 6.3670583e+02 9.14e+00 1.00e+03   1.0 1.06e+09    -  1.49e-08 1.96e-09f  4
  94r 6.3670626e+02 1.99e+00 9.93e+02   1.0 7.41e+03    -  7.21e-03 1.22e-03f  1
In iteration 94, 1 Slack too small, adjusting variable bound
  95  6.5825716e+02 1.97e+00 2.37e+02  -9.0 1.20e+06    -  1.32e-01 9.42e-03h  1
  96  7.4475468e+02 1.95e+00 2.34e+03  -9.0 1.06e+06    -  5.83e-06 2.87e-02h  1
In iteration 96, 1 Slack too small, adjusting variable bound
  97  7.4489322e+02 1.95e+00 2.34e+03  -9.0 4.09e+06  -6.5 1.63e-02 1.48e-05h  1
  98  7.4856339e+02 1.95e+00 2.34e+03  -9.0 4.08e+06  -6.9 5.55e-04 3.78e-04h  8
  99  8.4362967e+02 2.08e+00 1.39e+04  -9.0 4.07e+06  -7.4 4.58e-03 8.16e-03h  5
iter    objective    inf_pr   inf_du lg(mu)  ||d||  lg(rg) alpha_du alpha_pr  ls
 100  8.4690697e+02 2.08e+00 1.39e+04  -9.0 5.00e+06  -7.0 1.28e-03 2.13e-04h  9
 101  8.5672997e+02 2.06e+00 1.41e+04  -9.0 4.80e+06  -6.6 1.59e-03 6.51e-04h  6
 102  8.8649227e+02 1.92e+00 1.46e+04  -9.0 4.65e+06  -7.0 4.68e-03 1.89e-03h  6
 103  8.9305130e+02 1.91e+00 1.47e+04  -9.0 4.69e+06  -6.6 5.98e-03 3.98e-04h  7
 104  8.9439467e+02 1.91e+00 1.47e+04  -9.0 4.73e+06  -7.1 8.36e-03 7.93e-05h 11
 105  8.9470507e+02 1.91e+00 1.47e+04  -9.0 4.70e+06  -6.7 8.39e-03 1.86e-05h 12
 106r 8.9470507e+02 1.91e+00 1.00e+03   0.3 0.00e+00  -7.1 0.00e+00 2.97e-07R 19
 107r 8.9470654e+02 9.86e+01 9.95e+02   0.3 8.62e+03    -  4.57e-03 1.21e-03f  1
 108r 8.9470969e+02 9.81e+01 9.87e+02   0.3 6.58e+02    -  9.01e-03 4.29e-03f  1
 109r 8.9470995e+02 9.80e+01 9.70e+02   0.3 5.81e+02    -  2.38e-02 1.89e-03f  1
iter    objective    inf_pr   inf_du lg(mu)  ||d||  lg(rg) alpha_du alpha_pr  ls
 110r 8.9470922e+02 9.54e+01 9.00e+02   0.3 2.17e+02    -  7.41e-02 2.71e-02f  1
 111r 8.9469941e+02 8.66e+01 7.99e+02   0.3 1.12e+02    -  9.76e-01 9.94e-02f  1
 112r 8.9460690e+02 3.94e+01 9.11e+01   0.3 1.11e+02    -  8.39e-01 1.00e+00f  1
 113r 8.9462437e+02 6.52e+01 1.74e+02   0.3 4.28e+01    -  1.00e+00 1.00e+00h  1
 114r 8.9464121e+02 4.65e+01 3.59e+02   0.3 2.34e+02    -  6.99e-01 3.13e-01h  2
 115r 8.9464643e+02 4.37e+01 9.40e+02   0.3 2.89e+02    -  8.27e-01 5.93e-02h  4
 116r 8.9464670e+02 4.17e+01 7.91e+02   0.3 2.22e+02    -  2.98e-01 4.52e-02h  5
 117r 8.9464691e+02 4.16e+01 1.18e+03   0.3 2.54e+02    -  9.49e-01 3.91e-03h  9
 118r 8.9464696e+02 4.15e+01 9.86e+02   0.3 2.56e+02    -  2.41e-01 9.77e-04h 11
 119r 8.9466126e+02 2.99e+01 8.86e+02   0.3 2.45e+02    -  9.45e-01 2.50e-01h  3
iter    objective    inf_pr   inf_du lg(mu)  ||d||  lg(rg) alpha_du alpha_pr  ls
 120r 8.9466214e+02 2.94e+01 7.58e+02   0.3 2.32e+02    -  2.15e-01 1.56e-02h  7
 121r 8.9466259e+02 2.92e+01 8.71e+02   0.3 2.06e+02    -  1.64e-01 7.81e-03h  8
 122r 8.9466229e+02 2.92e+01 7.62e+02   0.3 1.40e+02    -  2.15e-02 2.67e-04H  1
 123r 8.9466330e+02 2.88e+01 6.56e+02   0.3 2.61e+02    -  2.68e-01 1.56e-02f  7
 124r 8.9466330e+02 2.87e+01 8.55e+02   0.3 5.31e+00   0.0 8.64e-02 3.14e-03h  8
 125r 8.9466330e+02 2.50e+01 6.69e+02   0.3 7.94e-01   1.3 3.54e-01 1.30e-01h  1
 126r 8.9466330e+02 2.47e+01 3.53e+03   0.3 1.93e-01   6.3 9.86e-03 9.82e-03h  1
 127r 8.9466330e+02 2.43e+01 7.30e+03   0.3 3.31e-01   5.8 2.68e-02 1.87e-02h  1
 128r 8.9466330e+02 2.30e+01 1.05e+04   0.3 3.29e-01   5.3 4.14e-02 5.34e-02h  1
 129r 8.9466330e+02 2.11e+01 1.14e+04   0.3 3.07e-01   4.8 9.61e-02 8.07e-02h  1
iter    objective    inf_pr   inf_du lg(mu)  ||d||  lg(rg) alpha_du alpha_pr  ls
 130r 8.9466330e+02 1.92e+01 1.10e+04   0.3 2.76e-01   4.4 1.38e-01 8.91e-02h  1
 131r 8.9466330e+02 1.56e+01 9.20e+03   0.3 2.40e-01   3.9 2.40e-01 1.91e-01h  1
 132r 8.9466330e+02 1.36e+01 8.07e+03   0.3 2.86e-01   3.4 1.00e+00 1.28e-01f  1
 133r 8.9466330e+02 9.68e+00 5.78e+03   0.3 5.38e-01   2.9 8.30e-01 2.86e-01f  1
 134r 8.9466330e+02 8.53e+00 5.13e+03   0.3 1.01e+00   2.5 2.25e-01 1.18e-01f  1
 135r 8.9466330e+02 7.38e+00 4.54e+03   0.3 2.61e+00   2.0 2.65e-01 1.35e-01f  1
 136r 8.9466330e+02 7.05e+00 4.34e+03   0.3 9.08e+00   1.5 3.85e-02 4.41e-02f  3
 137r 8.9466330e+02 7.37e+00 4.32e+03   0.3 1.89e+00   1.9 3.18e-02 7.64e-03F  1
 138r 8.9466330e+02 7.24e+00 4.37e+03   0.3 9.53e+00   1.4 2.41e-01 1.74e-02f  4
 139r 8.9466330e+02 7.23e+00 4.38e+03   0.3 1.20e+02   1.0 1.50e-02 4.44e-04f  5
iter    objective    inf_pr   inf_du lg(mu)  ||d||  lg(rg) alpha_du alpha_pr  ls
 140r 8.9466330e+02 7.17e+00 4.46e+03   0.3 8.18e+00   1.4 2.92e-01 9.12e-03f  6
 141r 8.9466330e+02 6.74e+01 2.64e+04   0.3 1.94e+00   1.8 2.93e-01 4.37e-01f  1
 142r 8.9466330e+02 6.46e+01 2.52e+04   0.3 2.63e+00   2.2 3.79e-02 4.28e-02f  1
 143r 8.9466330e+02 6.06e+01 2.36e+04   0.3 8.40e-01   2.7 4.10e-02 6.41e-02h  1
 144r 8.9466330e+02 5.27e+01 1.87e+04   0.3 7.45e-01   3.1 8.15e-02 1.35e-01h  1
 145r 8.9466330e+02 4.58e+01 1.54e+04   0.3 9.49e-01   2.6 2.27e-01 1.39e-01h  1
 146r 8.9466330e+02 4.05e+01 1.32e+04   0.3 1.25e+00   2.1 1.19e-01 1.35e-01h  1
 147r 8.9466330e+02 4.05e+01 1.32e+04   0.3 1.43e+02   1.7 7.27e-04 8.37e-04h  2
 148r 8.9466330e+02 3.31e+01 7.93e+03   0.3 2.49e+00   3.0 1.56e-02 3.44e-01h  1
 149r 8.9466330e+02 3.30e+01 7.78e+03   0.3 2.29e+01   2.5 1.04e-02 2.01e-02h  1
iter    objective    inf_pr   inf_du lg(mu)  ||d||  lg(rg) alpha_du alpha_pr  ls
 150r 8.9466330e+02 2.12e+01 6.12e+03   0.3 1.32e+00   2.9 2.93e-01 5.40e-01h  1
 151r 8.9466330e+02 1.75e+01 5.17e+03   0.3 8.53e-01   2.5 1.43e-01 1.90e-01h  1
 152r 8.9466330e+02 1.30e+01 4.30e+03   0.3 8.25e-01   2.9 1.04e-01 2.80e-01h  1
 153r 8.9466330e+02 1.22e+01 4.03e+03   0.3 7.50e+00   2.4 4.47e-02 6.53e-02f  1
 154r 8.9466330e+02 9.64e+00 4.22e+03   0.3 7.08e-01   3.7 1.45e-01 2.25e-01h  1
 155r 8.9466330e+02 8.32e+00 4.33e+03   0.3 5.77e-01   4.2 1.09e-01 1.43e-01h  1
 156r 8.9466330e+02 5.26e+00 5.54e+03   0.3 6.80e-01   3.7 3.40e-02 6.10e-01F  1
 157r 8.9466330e+02 2.34e+00 1.16e+04   0.3 4.02e-01   4.1 2.65e-01 7.49e-01h  1
 158r 8.9466330e+02 4.76e+00 1.00e+04   0.3 4.69e-02   4.5 3.38e-02 1.46e-01F  1
 159r 8.9466330e+02 3.67e+00 8.34e+03   0.3 1.07e-01   4.1 1.00e+00 1.66e-01f  1
iter    objective    inf_pr   inf_du lg(mu)  ||d||  lg(rg) alpha_du alpha_pr  ls
 160r 8.9466330e+02 2.24e+00 5.35e+03   0.3 4.05e-02   4.5 1.00e+00 3.67e-01f  2
 161r 8.9466330e+02 2.24e+00 4.66e+03   0.3 6.54e-02   4.0 1.00e+00 1.30e-01f  2
 162r 8.9466330e+02 1.87e+01 3.42e+03   0.3 3.36e-01   3.5 1.40e-01 2.69e-01F  1
 163r 8.9466330e+02 5.41e+01 2.82e+03   0.3 1.21e-01   4.0 5.05e-01 1.73e-01f  1
 164r 8.9466330e+02 4.20e+01 2.19e+03   0.3 4.18e-01   3.5 7.71e-02 2.25e-01f  1
 165r 8.9466330e+02 4.16e+01 2.17e+03   0.3 3.10e-01   3.9 3.52e-01 8.83e-03h  1
 166r 8.9466330e+02 4.05e+01 2.11e+03   0.3 3.23e-01   3.4 3.75e-02 2.55e-02f  1
 167r 8.9466330e+02 2.27e+01 2.31e+03   0.3 3.03e-01   3.9 1.06e-02 4.39e-01h  1
 168r 8.9466330e+02 2.06e+01 1.73e+03   0.3 3.00e-01   3.4 4.14e-01 9.58e-02f  1
 169r 8.9466330e+02 1.43e+01 1.10e+03   0.3 5.39e-01   2.9 5.56e-01 3.06e-01f  1
iter    objective    inf_pr   inf_du lg(mu)  ||d||  lg(rg) alpha_du alpha_pr  ls
 170r 8.9466330e+02 1.02e+01 7.52e+02   0.3 1.88e+00   2.4 5.79e-01 2.88e-01f  1
 171r 8.9466330e+02 7.70e+00 3.78e+03   0.3 4.73e+00   2.0 1.94e-01 2.42e-01f  1
 172r 8.9466330e+02 7.32e+00 9.83e+02   0.3 4.59e+00   2.4 1.00e+00 4.92e-02f  1
 173r 8.9466330e+02 4.85e+00 1.40e+03   0.3 2.86e-01   1.9 2.23e-02 3.36e-01f  1
 174r 8.9466330e+02 3.74e+00 1.14e+03   0.3 5.33e-01   1.4 1.98e-01 2.28e-01f  1
 175r 8.9466330e+02 3.43e+00 9.88e+02   0.3 6.94e-01   1.0 4.37e-01 8.32e-02f  1
 176r 8.9465213e+02 6.67e+01 1.04e+03   0.3 1.30e+03    -  7.95e-02 1.43e-02f  1
 177r 8.9465213e+02 9.37e+00 1.15e+03   0.3 1.55e+01   0.5 7.72e-01 2.47e-01h  1
 178r 8.9465213e+02 3.15e+00 4.60e+02   0.3 5.31e+00  -0.0 6.12e-01 5.82e-01f  1
 179r 8.9465214e+02 9.34e-01 1.40e+02   0.3 1.59e+01  -0.5 1.00e+00 7.93e-01f  1
iter    objective    inf_pr   inf_du lg(mu)  ||d||  lg(rg) alpha_du alpha_pr  ls
 180  8.9277609e+02 3.15e+00 2.83e+03  -9.0 1.06e+07    -  1.79e-03 1.39e-04f  1
 181  8.9246154e+02 3.15e+00 2.83e+03  -9.0 6.57e+06    -  6.27e-12 3.88e-05f  7
 182  8.9242254e+02 3.15e+00 2.83e+03  -9.0 6.51e+06    -  1.07e-02 4.82e-06f 10
 183  8.9240346e+02 3.15e+00 2.83e+03  -9.0 6.52e+06    -  4.55e-05 2.36e-06f 11
 184  8.9239354e+02 3.15e+00 2.83e+03  -9.0 6.52e+06    -  3.63e-03 1.22e-06f 12
 185  8.9238786e+02 3.15e+00 2.83e+03  -9.0 6.52e+06    -  4.88e-05 6.78e-07f 13
 186  8.5943743e+02 3.40e+02 4.36e+03  -9.0 6.53e+06    -  5.23e-02 4.36e-03f  1
 187r 8.5943743e+02 3.40e+02 9.99e+02   2.5 0.00e+00    -  0.00e+00 3.07e-11R  2
 188r 8.5943741e+02 2.02e+02 9.99e+02   2.5 5.99e+10    -  6.15e-11 2.04e-09f  1
 189  8.5928685e+02 2.02e+02 1.80e+01  -9.0 2.56e+05    -  3.58e-03 1.98e-03h  1
iter    objective    inf_pr   inf_du lg(mu)  ||d||  lg(rg) alpha_du alpha_pr  ls
 190  8.4612762e+02 3.44e+02 4.17e+02  -9.0 2.06e+06    -  3.33e-11 9.80e-03f  1
 191r 8.4612762e+02 3.44e+02 9.99e+02   2.5 0.00e+00    -  0.00e+00 2.40e-11R  2
 192r 8.4612759e+02 2.63e+02 9.99e+02   2.5 4.20e+10    -  3.20e-11 7.02e-10f  1
 193  8.4606747e+02 2.63e+02 1.39e+00  -9.0 2.28e+05    -  1.84e-02 6.08e-04h  1
 194r 8.4606747e+02 2.63e+02 9.99e+02   2.4 0.00e+00    -  0.00e+00 3.47e-11R  2
 195r 8.4606747e+02 2.63e+02 2.28e+04   2.4 3.63e+10    -  3.89e-07 1.49e-10f  6
 196r 8.4606769e+02 1.02e+02 2.28e+04   2.4 1.90e+05    -  1.52e-03 1.37e-03f  1
 197  8.4615686e+02 1.02e+02 1.38e+00  -9.0 3.06e+05    -  1.27e-01 1.62e-03h  1
 198r 8.4615686e+02 1.02e+02 9.99e+02   2.0 0.00e+00    -  0.00e+00 2.85e-12R  2
 199r 8.4615686e+02 1.02e+02 7.14e+03   2.0 2.04e+10    -  3.47e-07 3.27e-10f  5
iter    objective    inf_pr   inf_du lg(mu)  ||d||  lg(rg) alpha_du alpha_pr  ls
 200r 8.4615694e+02 3.61e+01 7.09e+03   2.0 6.18e+04    -  6.96e-03 1.63e-03f  1
 201  8.4600934e+02 3.56e+01 6.81e+00  -9.0 4.81e+05    -  2.73e-02 8.96e-03h  3
 202  8.4626846e+02 3.54e+01 9.65e+00  -9.0 4.29e+05    -  4.44e-01 6.25e-03h  3
 203  8.4662815e+02 3.49e+01 1.54e+01  -9.0 4.18e+05    -  4.49e-02 9.57e-03h  2
 204  8.4708528e+02 3.45e+01 2.09e+01  -9.0 4.35e+05    -  4.54e-01 1.02e-02h  1
In iteration 204, 1 Slack too small, adjusting variable bound
 205  8.4708527e+02 3.45e+01 2.09e+01  -9.0 8.64e+05    -  6.78e-02 3.10e-08h  1
In iteration 205, 1 Slack too small, adjusting variable bound
 206  8.4458254e+02 3.22e+01 1.14e+03  -9.0 8.65e+05    -  1.81e-01 7.37e-02f  1
 207  8.3934238e+02 1.08e+02 1.05e+03  -9.0 3.41e+05    -  1.95e-01 5.85e-02f  3
 208  8.3325204e+02 9.62e+01 7.56e+02  -9.0 3.18e+05    -  2.65e-01 1.21e-01f  3
In iteration 208, 1 Slack too small, adjusting variable bound
 209  7.9685315e+02 8.91e+01 1.26e+03  -9.0 7.43e+05    -  2.82e-02 8.02e-02f  1
iter    objective    inf_pr   inf_du lg(mu)  ||d||  lg(rg) alpha_du alpha_pr  ls
 210  7.7243740e+02 7.54e+01 5.48e+03  -9.0 4.43e+05    -  2.67e-01 1.78e-01F  1
In iteration 210, 1 Slack too small, adjusting variable bound
 211  7.7365881e+02 7.53e+01 5.48e+03  -9.0 6.71e+05    -  5.32e-02 5.99e-04h  1
 212  7.9462718e+02 7.36e+01 5.42e+03  -9.0 6.68e+05    -  5.56e-02 9.77e-03h  1
In iteration 212, 1 Slack too small, adjusting variable bound
 213  1.1024810e+03 3.74e+01 4.74e+03  -9.0 7.99e+05    -  1.84e-08 8.83e-02h  1
 214  1.1305579e+03 3.64e+01 4.63e+03  -9.0 5.08e+05    -  1.03e-01 2.32e-02h  1
In iteration 214, 1 Slack too small, adjusting variable bound
 215  1.1332258e+03 3.63e+01 4.62e+03  -9.0 8.96e+05    -  4.25e-12 9.50e-04h  1
In iteration 215, 1 Slack too small, adjusting variable bound
 216  1.8043345e+03 2.20e+01 3.46e+04  -9.0 4.36e+05    -  2.17e-02 2.31e-01h  1
In iteration 216, 1 Slack too small, adjusting variable bound
 217  1.7805702e+03 2.07e+01 3.11e+04  -9.0 1.20e+05  -6.7 2.87e-03 6.13e-02f  1
 218r 1.7805702e+03 2.07e+01 9.99e+02   1.3 0.00e+00  -5.4 0.00e+00 9.46e-11R  5
 219r 1.7805550e+03 1.99e+01 9.99e+02   1.3 7.91e+09    -  1.79e-08 1.81e-08f  1
iter    objective    inf_pr   inf_du lg(mu)  ||d||  lg(rg) alpha_du alpha_pr  ls
 220r 1.7805569e+03 6.43e+00 9.87e+02   1.3 1.31e+04    -  2.98e-02 3.01e-03f  1
 221  2.3108502e+03 3.46e+00 4.48e+04  -9.0 5.48e+05    -  3.48e-01 5.34e-01h  1
 222  2.5392170e+03 3.08e+00 4.08e+04  -9.0 6.50e+05    -  3.44e-02 8.99e-02h  1
 223  2.4092467e+03 1.72e+00 2.05e+04  -9.0 4.53e+05    -  1.13e-03 4.91e-01f  1
In iteration 223, 1 Slack too small, adjusting variable bound
 224  2.4092467e+03 1.72e+00 2.05e+04  -9.0 2.38e+05    -  1.01e-02 1.10e-09h  1
In iteration 224, 1 Slack too small, adjusting variable bound
 225  2.4092359e+03 1.72e+00 2.05e+04  -9.0 2.76e+05    -  1.32e-06 2.34e-05f  1
In iteration 225, 1 Slack too small, adjusting variable bound
 226  2.4092243e+03 1.72e+00 2.05e+04  -9.0 2.76e+05    -  3.52e-03 2.46e-05f  1
In iteration 226, 1 Slack too small, adjusting variable bound
 227  2.4069187e+03 1.72e+00 2.05e+04  -9.0 2.86e+05    -  1.26e-05 3.10e-03f  1
In iteration 227, 1 Slack too small, adjusting variable bound
 228  2.4038841e+03 1.71e+00 2.04e+04  -9.0 3.01e+05    -  1.79e-03 2.48e-03f  1
In iteration 228, 1 Slack too small, adjusting variable bound
 229  2.3972381e+03 1.71e+00 2.04e+04  -9.0 3.32e+05    -  2.06e-03 3.11e-03f  1
In iteration 229, 1 Slack too small, adjusting variable bound
iter    objective    inf_pr   inf_du lg(mu)  ||d||  lg(rg) alpha_du alpha_pr  ls
 230  2.3859867e+03 1.70e+00 2.03e+04  -9.0 3.34e+05    -  4.96e-03 5.13e-03f  1
In iteration 230, 1 Slack too small, adjusting variable bound
 231  2.3636508e+03 1.68e+00 2.01e+04  -9.0 3.34e+05    -  1.01e-02 1.03e-02f  1
In iteration 231, 1 Slack too small, adjusting variable bound
 232  2.3190503e+03 1.65e+00 1.96e+04  -9.0 3.33e+05    -  2.02e-02 2.12e-02f  1
In iteration 232, 1 Slack too small, adjusting variable bound
 233  2.2300478e+03 1.57e+00 1.87e+04  -9.0 3.30e+05    -  1.94e-01 4.55e-02f  1
In iteration 233, 1 Slack too small, adjusting variable bound
 234  1.8359782e+03 1.06e+00 1.32e+04  -9.0 3.23e+05    -  1.07e-01 2.98e-01f  1
 235  1.6687643e+03 7.33e-01 1.03e+04  -9.0 2.47e+05    -  2.35e-01 2.15e-01f  1
 236r 1.6687643e+03 7.33e-01 9.99e+02  -0.1 0.00e+00  -5.9 0.00e+00 3.97e-07R  4
 237r 1.6686777e+03 3.89e-01 9.98e+02  -0.1 3.62e+04    -  9.18e-04 7.05e-04f  1
 238  1.6550698e+03 3.84e-01 2.65e+01  -9.0 1.86e+05    -  4.47e-01 1.34e-02f  1
In iteration 238, 1 Slack too small, adjusting variable bound
 239  1.6550683e+03 3.84e-01 2.57e+01  -9.0 1.64e+05    -  6.48e-01 2.82e-06f  1
iter    objective    inf_pr   inf_du lg(mu)  ||d||  lg(rg) alpha_du alpha_pr  ls
 240  1.4911385e+03 4.87e+01 4.27e+03  -9.0 1.64e+05    -  6.48e-01 5.90e-01f  1
 241  1.3755968e+03 5.54e-01 1.45e+04  -9.0 1.40e+05  -6.3 3.03e-09 1.00e+00f  1
In iteration 241, 1 Slack too small, adjusting variable bound
 242  1.4102565e+03 5.10e-01 1.34e+04  -9.0 8.58e+04  -6.8 6.73e-01 8.23e-02h  1
 243  1.9909809e+03 1.01e+00 4.43e+05  -9.0 7.97e+04  -7.3 1.66e-05 1.00e+00h  1
 244  1.8519788e+03 6.25e-03 2.39e+04  -9.0 1.76e+04  -6.9 7.77e-01 1.00e+00f  1
 245  1.7620365e+03 3.05e-01 3.26e+04  -9.0 1.17e+07  -7.3 7.83e-03 8.70e-03f  1
 246r 1.7620365e+03 3.05e-01 1.00e+03  -0.5 0.00e+00  -7.8 0.00e+00 1.27e-11R  2
 247r 1.7622545e+03 2.66e-01 1.00e+03  -0.5 8.90e+06    -  8.96e-08 1.37e-05f  1
In iteration 247, 1 Slack too small, adjusting variable bound
 248  1.7482055e+03 2.55e-01 4.49e+01  -9.0 1.52e+05    -  7.08e-02 4.54e-02f  1
 249  1.5938140e+03 2.27e-01 4.98e+02  -9.0 2.13e+05    -  9.53e-02 2.47e-01f  1
In iteration 249, 1 Slack too small, adjusting variable bound
iter    objective    inf_pr   inf_du lg(mu)  ||d||  lg(rg) alpha_du alpha_pr  ls
 250  1.5896385e+03 2.22e-01 4.89e+02  -9.0 6.66e+04    -  2.57e-02 1.90e-02f  1
 251  1.5408164e+03 7.53e-01 4.80e+02  -9.0 1.25e+07  -8.3 8.90e-12 2.02e-03f  3
In iteration 251, 1 Slack too small, adjusting variable bound
 252  1.2892471e+03 1.26e+01 1.98e+03  -9.0 1.15e+05    -  3.80e-01 5.69e-01F  1
In iteration 252, 1 Slack too small, adjusting variable bound
 253  1.3133521e+03 5.73e+00 8.65e+02  -9.0 8.94e+04    -  8.92e-01 5.45e-01h  1
 254  1.3578393e+03 4.30e+00 6.95e+02  -9.0 8.69e+04    -  8.97e-01 2.50e-01h  3
 255  1.3716375e+03 3.82e+00 6.36e+02  -9.0 6.13e+04    -  9.37e-01 1.12e-01h  4
 256  1.3718550e+03 3.83e+00 6.35e+02  -9.0 6.03e+04  -5.2 1.80e-02 1.95e-03h 10
In iteration 256, 1 Slack too small, adjusting variable bound
 257  1.3718735e+03 3.82e+00 6.34e+02  -9.0 1.37e+05  -5.6 8.37e-01 2.33e-03h  1
 258  1.3742179e+03 3.43e+00 6.44e+03  -9.0 1.37e+05  -6.1 8.39e-01 1.25e-01h  4
 259  1.3749207e+03 3.41e+00 6.41e+03  -9.0 2.72e+04  -5.7 9.61e-01 5.05e-03h  8
iter    objective    inf_pr   inf_du lg(mu)  ||d||  lg(rg) alpha_du alpha_pr  ls
 260  1.3750258e+03 3.40e+00 6.38e+03  -9.0 1.43e+05  -6.2 1.26e-01 3.91e-03h  9
 261  1.2726698e+03 9.62e+00 2.30e+07  -9.0 1.48e+05  -3.9 1.44e-02 5.00e-01f  2
 262  1.2912107e+03 6.14e-02 7.43e+06  -9.0 4.58e+04  -4.4 4.26e-03 1.00e+00h  1
In iteration 262, 1 Slack too small, adjusting variable bound
 263  1.2915011e+03 6.13e-02 7.42e+06  -9.0 3.91e+04  -4.9 9.59e-01 2.35e-03h  1
 264  1.3300963e+03 4.10e-02 4.96e+06  -9.0 3.86e+04  -4.5 9.96e-01 3.32e-01h  1
In iteration 264, 1 Slack too small, adjusting variable bound
 265  1.3746531e+03 1.12e-02 1.33e+06  -9.0 1.72e+04  -4.0 1.62e-03 7.32e-01h  1
 266  1.3852575e+03 3.69e-05 1.13e+05  -9.0 2.03e+03  -4.5 9.28e-01 1.00e+00h  1
 267  1.3847211e+03 7.64e-08 8.52e+01  -9.0 7.82e+01  -5.0 8.58e-01 1.00e+00f  1
 268  1.1712382e+03 8.00e+00 2.01e+03  -9.0 3.61e+05    -  4.94e-01 3.74e-01f  1
 269  1.1442434e+03 9.60e-03 8.83e+04  -9.0 8.99e+04  -5.5 2.07e-09 1.00e+00f  1
iter    objective    inf_pr   inf_du lg(mu)  ||d||  lg(rg) alpha_du alpha_pr  ls
 270  1.1370174e+03 7.62e-03 5.20e+03  -9.0 7.40e+03  -5.0 4.04e-01 1.00e+00f  1
 271  1.1342123e+03 2.09e-06 1.39e+02  -9.0 4.07e+02  -5.5 1.00e+00 1.00e+00f  1
 272  5.2517272e+02 6.85e+00 1.41e+03  -9.0 2.41e+05    -  3.42e-01 1.00e+00f  1
 273  5.2758130e+02 3.42e+00 7.49e+02  -9.0 1.46e+05    -  1.00e+00 5.00e-01h  2
 274  5.1746581e+02 7.00e+00 5.74e+02  -9.0 9.39e+04    -  4.19e-01 2.50e-01f  3
In iteration 274, 28 Slacks too small, adjusting variable bounds
 275  5.1765872e+02 6.97e+00 5.71e+02  -9.0 8.71e+04  -6.0 1.00e+00 5.55e-03h  1
 276  5.2172671e+02 6.10e+00 4.37e+03  -9.0 6.78e+04  -5.6 6.14e-01 1.25e-01h  4
 277  5.2335703e+02 5.71e+00 4.18e+03  -9.0 9.76e+04  -6.0 1.38e-09 6.25e-02h  5
 278  5.2362514e+02 5.69e+00 4.16e+03  -9.0 1.30e+05  -6.5 3.00e-01 3.84e-03h  1
 279  5.2447834e+02 5.68e+00 4.16e+03  -9.0 3.53e+05  -7.0 1.00e+00 1.95e-03h 10
iter    objective    inf_pr   inf_du lg(mu)  ||d||  lg(rg) alpha_du alpha_pr  ls
 280  5.2514233e+02 5.64e+00 4.13e+03  -9.0 1.35e+05  -6.6 3.66e-01 7.81e-03h  8
 281  5.2516205e+02 5.64e+00 4.13e+03  -9.0 3.82e+05  -7.1 1.00e+00 3.88e-05h 15
 282  5.2516788e+02 5.64e+00 4.13e+03  -9.0 1.42e+05  -6.6 5.01e-01 6.10e-05h 15
 283r 5.2516788e+02 5.64e+00 1.00e+03   0.8 0.00e+00  -7.1 0.00e+00 4.27e-07R 21
 284r 5.2516788e+02 5.64e+00 1.00e+03   0.8 1.41e+06    -  3.28e-11 1.49e-08f  1
 285r 5.2516688e+02 4.19e+00 2.52e+04   0.8 3.58e+03    -  7.24e-07 4.04e-04f  1
 286  4.9833958e+02 6.10e+00 4.29e+02  -9.0 1.04e+05    -  8.91e-01 5.00e-01f  2
 287  5.1285517e+02 3.85e+00 3.33e+02  -9.0 1.02e+05    -  1.00e+00 3.69e-01h  1
In iteration 287, 1 Slack too small, adjusting variable bound
 288  5.4273606e+02 4.40e-01 4.71e+02  -9.0 4.58e+04    -  1.21e-02 8.86e-01h  1
 289  5.5080120e+02 1.36e+00 3.59e+01  -9.0 2.46e+04    -  1.00e+00 1.00e+00h  1
iter    objective    inf_pr   inf_du lg(mu)  ||d||  lg(rg) alpha_du alpha_pr  ls
 290  5.4780855e+02 1.24e+00 4.62e+04  -9.0 3.60e+04    -  1.00e+00 5.00e-01f  2
 291  5.5375419e+02 1.19e+00 2.60e+03  -9.0 1.67e+04    -  1.00e+00 9.44e-01h  1
 292  5.5117626e+02 8.95e-01 1.05e+04  -9.0 3.39e+04    -  3.46e-05 2.50e-01f  3
 293  5.4965702e+02 1.15e+00 7.91e+03  -9.0 2.72e+04    -  1.00e+00 2.50e-01f  3
 294  5.5163349e+02 9.57e-01 3.95e+03  -9.0 1.61e+04    -  5.75e-01 5.00e-01h  2
 295  5.4993426e+02 1.07e+00 2.97e+03  -9.0 2.82e+04    -  1.00e+00 2.50e-01f  3
 296  5.5181206e+02 9.86e-01 1.48e+03  -9.0 1.51e+04    -  1.00e+00 5.00e-01h  2
 297  5.5004589e+02 1.04e+00 1.11e+03  -9.0 2.86e+04    -  1.00e+00 2.50e-01f  3
 298  5.5188235e+02 9.99e-01 5.56e+02  -9.0 1.47e+04    -  1.00e+00 5.00e-01h  2
 299  5.5009005e+02 1.02e+00 4.17e+02  -9.0 2.87e+04    -  1.00e+00 2.50e-01f  3
iter    objective    inf_pr   inf_du lg(mu)  ||d||  lg(rg) alpha_du alpha_pr  ls
 300  5.5190991e+02 1.00e+00 2.09e+02  -9.0 1.45e+04    -  1.00e+00 5.00e-01h  2
 301  5.5010739e+02 1.02e+00 1.56e+02  -9.0 2.88e+04    -  1.00e+00 2.50e-01f  3
 302  5.5423102e+02 1.26e+00 5.03e+00  -9.0 1.44e+04    -  1.00e+00 1.00e+00w  1
 303  5.4759904e+02 2.48e+00 3.13e+01  -9.0 3.43e+04    -  1.00e+00 1.00e+00w  1
 304  5.5430606e+02 9.87e-01 2.96e+01  -9.0 3.56e+04    -  1.00e+00 1.00e+00h  1
 305  5.5144688e+02 7.40e-01 2.41e+01  -9.0 3.65e+04    -  1.00e+00 2.50e-01f  3
 306  5.4987859e+02 1.09e+00 1.88e+01  -9.0 2.73e+04    -  1.00e+00 2.50e-01f  3
 307  5.5179228e+02 8.95e-01 1.08e+01  -9.0 1.47e+04    -  1.00e+00 5.00e-01h  2
 308  5.5001698e+02 1.05e+00 9.18e+00  -9.0 2.90e+04    -  1.00e+00 2.50e-01f  3
 309  5.5187036e+02 9.61e-01 5.84e+00  -9.0 1.46e+04    -  1.00e+00 5.00e-01h  2
iter    objective    inf_pr   inf_du lg(mu)  ||d||  lg(rg) alpha_du alpha_pr  ls
 310  5.5007606e+02 1.03e+00 5.53e+00  -9.0 2.89e+04    -  1.00e+00 2.50e-01f  3
 311  5.5190346e+02 9.89e-01 4.02e+00  -9.0 1.45e+04    -  1.00e+00 5.00e-01h  2
 312  5.5010094e+02 1.02e+00 4.14e+00  -9.0 2.88e+04    -  1.00e+00 2.50e-01f  3
 313  5.5191751e+02 1.00e+00 4.02e+00  -9.0 1.44e+04    -  1.00e+00 5.00e-01h  2
 314  5.5011129e+02 1.02e+00 3.61e+00  -9.0 2.88e+04    -  1.00e+00 2.50e-01f  3
 315  5.5423130e+02 1.26e+00 5.03e+00  -9.0 1.44e+04    -  1.00e+00 1.00e+00w  1
 316  5.4759913e+02 2.48e+00 3.13e+01  -9.0 3.43e+04    -  1.00e+00 1.00e+00w  1
 317  5.5430607e+02 9.87e-01 2.96e+01  -9.0 3.56e+04    -  1.00e+00 1.00e+00h  1
 318  5.5144688e+02 7.40e-01 2.41e+01  -9.0 3.65e+04    -  1.00e+00 2.50e-01f  3
 319  5.5061004e+02 8.61e-01 2.13e+01  -9.0 2.73e+04    -  1.00e+00 1.25e-01f  4
iter    objective    inf_pr   inf_du lg(mu)  ||d||  lg(rg) alpha_du alpha_pr  ls
 320  5.5139077e+02 8.00e-01 1.62e+01  -9.0 1.11e+04    -  1.00e+00 2.50e-01h  3
 321  5.4979719e+02 1.12e+00 1.30e+01  -9.0 2.77e+04    -  1.00e+00 2.50e-01f  3
 322  5.5069128e+02 8.37e-01 1.01e+01  -9.0 1.54e+04    -  1.00e+00 2.50e-01h  3
 323  5.5106073e+02 8.04e-01 8.92e+00  -9.0 1.10e+04    -  1.00e+00 1.25e-01h  4
 324  5.4986421e+02 1.09e+00 7.09e+00  -9.0 2.17e+04    -  1.00e+00 2.50e-01f  3
 325  5.5074796e+02 8.20e-01 5.61e+00  -9.0 1.56e+04    -  1.00e+00 2.50e-01h  3
 326  5.5150452e+02 8.12e-01 4.52e+00  -9.0 1.08e+04    -  1.00e+00 2.50e-01h  3
 327  5.4987645e+02 1.09e+00 4.48e+00  -9.0 2.71e+04    -  1.00e+00 2.50e-01f  3
 328  5.5426862e+02 1.23e+00 5.05e+00  -9.0 1.58e+04    -  1.00e+00 1.00e+00w  1
 329  5.4759557e+02 2.48e+00 3.14e+01  -9.0 3.44e+04    -  1.00e+00 1.00e+00w  1
iter    objective    inf_pr   inf_du lg(mu)  ||d||  lg(rg) alpha_du alpha_pr  ls
 330  5.5430821e+02 9.83e-01 2.96e+01  -9.0 3.57e+04    -  1.00e+00 1.00e+00w  1
 331  5.5075662e+02 8.17e-01 3.64e+00  -9.0 3.65e+04    -  1.00e+00 2.50e-01h  2
 332  5.5236624e+02 7.95e-01 4.62e+00  -9.0 1.05e+04    -  1.00e+00 5.00e-01h  2
 333  5.5035382e+02 9.28e-01 3.96e+00  -9.0 2.92e+04    -  1.00e+00 2.50e-01f  3
 334  5.5116701e+02 7.59e-01 3.85e+00  -9.0 1.38e+04    -  1.00e+00 2.50e-01h  3
 335  5.5014025e+02 1.00e+00 2.63e+00  -9.0 1.83e+04    -  1.00e+00 2.50e-01f  3
 336  5.5098081e+02 7.54e-01 2.16e+00  -9.0 1.50e+04    -  1.00e+00 2.50e-01h  3
 337  5.5494751e+02 1.01e-01 9.54e+00  -9.0 7.79e+03    -  1.00e+00 1.00e+00h  1
 338  5.4963856e+02 1.07e+00 1.33e+01  -9.0 2.82e+04    -  1.00e+00 5.00e-01f  2
 339  5.5151472e+02 6.16e-01 6.54e+00  -9.0 1.79e+04    -  1.00e+00 5.00e-01h  2
iter    objective    inf_pr   inf_du lg(mu)  ||d||  lg(rg) alpha_du alpha_pr  ls
 340  5.5015841e+02 9.25e-01 5.69e+00  -9.0 2.24e+04    -  1.00e+00 2.50e-01f  3
 341  5.5100821e+02 6.95e-01 4.42e+00  -9.0 1.42e+04    -  1.00e+00 2.50e-01h  3
 342  5.5467160e+02 5.29e-01 6.13e+00  -9.0 8.43e+03    -  1.00e+00 1.00e+00h  1
 343  5.4927792e+02 1.22e+00 1.28e+01  -9.0 3.27e+04    -  1.00e+00 5.00e-01f  2
 344  5.5024056e+02 9.11e-01 9.84e+00  -9.0 1.87e+04    -  1.00e+00 2.50e-01h  3
 345  5.5108153e+02 6.86e-01 7.49e+00  -9.0 1.38e+04    -  1.00e+00 2.50e-01h  3
 346  5.5519352e+02 1.34e-03 9.43e+00  -9.0 7.58e+03    -  1.00e+00 1.00e+00h  1
 347  5.5613963e+02 6.06e-05 8.69e-02  -9.0 1.12e+03    -  1.00e+00 1.00e+00h  1
 348  5.5614000e+02 1.09e-06 1.12e-03  -9.0 1.90e+00    -  1.00e+00 1.00e+00h  1
 349  5.5614001e+02 1.88e-10 1.96e-07  -9.0 1.89e-02    -  1.00e+00 1.00e+00h  1

Number of Iterations....: 349

                                   (scaled)                 (unscaled)
Objective...............:   5.5614001440964398e+02    5.5614001440964398e+02
Dual infeasibility......:   1.9550141822382550e-07    1.9550141822382550e-07
Constraint violation....:   1.8775381249724887e-10    1.8775381249724887e-10
Complementarity.........:   9.0909090909090962e-10    9.0909090909090962e-10
Overall NLP error.......:   5.2314415575864158e-09    1.9550141822382550e-07


Number of objective function evaluations             = 1393
Number of objective gradient evaluations             = 266
Number of equality constraint evaluations            = 1393
Number of inequality constraint evaluations          = 0
Number of equality constraint Jacobian evaluations   = 361
Number of inequality constraint Jacobian evaluations = 0
Number of Lagrangian Hessian evaluations             = 349
Total CPU secs in IPOPT (w/o function evaluations)   =      0.945
Total CPU secs in NLP function evaluations           =     19.589

EXIT: Optimal Solution Found.
